 # Version information for this restart file 
 # current date 2023-12-21 23:07:23.050
 # current working dir /public/home/yuzc/CP2K_TEST/20231129/FCTF1-C2H6/test/MD/MD2
 # Program compiled at                              Mon Feb 13 13:14:39 CST 2023
 # Program compiled on                                                  g06r1n02
 # Program compiled for                                                    local
 # Source code revision number                                       git:d8d7100
 &GLOBAL
   PRINT_LEVEL  LOW
   PROJECT_NAME cp2k
   RUN_TYPE  MD
 &END GLOBAL
 &MOTION
   &MD
     ENSEMBLE  NVT
     STEPS  200
     TIMESTEP     9.9999999999999989E-01
     STEP_START_VAL  200
     TIME_START_VAL     2.0000000000000014E+02
     ECONS_START_VAL    -7.8044445051139310E+03
     TEMPERATURE     2.9814999999999998E+02
     &THERMOSTAT
       TYPE  NOSE
     &END THERMOSTAT
     &AVERAGES  T
       &RESTART_AVERAGES
         ITIMES_START  1
         AVECPU     3.0364430843731387E+01
         AVEHUGONIOT     0.0000000000000000E+00
         AVETEMP_BARO     0.0000000000000000E+00
         AVEPOT    -7.8049580001100594E+03
         AVEKIN     5.1351609286384337E-01
         AVETEMP     1.5920997880861623E+02
         AVEKIN_QM     0.0000000000000000E+00
         AVETEMP_QM     0.0000000000000000E+00
         AVEVOL     7.2141798395689504E+04
         AVECELL_A     5.5936649423868133E+01
         AVECELL_B     5.5940806819675160E+01
         AVECELL_C     2.6770427325768981E+01
         AVEALPHA     8.6308999983732051E+01
         AVEBETA     9.5928000007148555E+01
         AVEGAMMA     1.2001099999707374E+02
         AVE_ECONS    -1.5258201437935848E-01
         AVE_PRESS     0.0000000000000000E+00
         AVE_PXX     0.0000000000000000E+00
       &END RESTART_AVERAGES
     &END AVERAGES
     &PRINT
       &PROGRAM_RUN_INFO  SILENT
         &EACH
           MD  1
         &END EACH
       &END PROGRAM_RUN_INFO
     &END PRINT
   &END MD
   &PRINT
     &TRAJECTORY  SILENT
       FORMAT  XMOL
       &EACH
         MD  10
       &END EACH
     &END TRAJECTORY
     &VELOCITIES  SILENT
       &EACH
         MD  10
       &END EACH
     &END VELOCITIES
     &FORCES  SILENT
       &EACH
         MD  10
       &END EACH
     &END FORCES
     &RESTART  SILENT
       BACKUP_COPIES  0
       &EACH
         MD  1
       &END EACH
     &END RESTART
     &RESTART_HISTORY  OFF
     &END RESTART_HISTORY
   &END PRINT
 &END MOTION
 &FORCE_EVAL
   METHOD  QS
   &DFT
     BASIS_SET_FILE_NAME BASIS_MOLOPT
     POTENTIAL_FILE_NAME POTENTIAL
     MULTIPLICITY  1
     CHARGE  0
     &SCF
       MAX_SCF  25
       EPS_SCF     1.0000000000000001E-05
       &OT  T
         ALGORITHM  STRICT
         MINIMIZER  DIIS
         LINESEARCH  2PNT
         PRECONDITIONER  FULL_KINETIC
       &END OT
       &OUTER_SCF  T
         EPS_SCF     1.0000000000000001E-05
         MAX_SCF  20
       &END OUTER_SCF
       &PRINT
         &RESTART  OFF
         &END RESTART
         &PROGRAM_RUN_INFO  SILENT
           &EACH
             MD  0
           &END EACH
         &END PROGRAM_RUN_INFO
       &END PRINT
     &END SCF
     &QS
       EPS_DEFAULT     1.0000000000000000E-10
       EXTRAPOLATION  ASPC
       EXTRAPOLATION_ORDER  3
     &END QS
     &MGRID
       CUTOFF     3.0000000000000000E+02
       REL_CUTOFF     4.0000000000000000E+01
     &END MGRID
     &XC
       DENSITY_CUTOFF     1.0000000000000000E-10
       GRADIENT_CUTOFF     1.0000000000000000E-10
       TAU_CUTOFF     1.0000000000000000E-10
       &XC_FUNCTIONAL  NO_SHORTCUT
         &PBE  T
         &END PBE
       &END XC_FUNCTIONAL
     &END XC
     &POISSON
       POISSON_SOLVER  PERIODIC
       PERIODIC  XYZ
     &END POISSON
   &END DFT
   &SUBSYS
     &CELL
       A     2.9600400000000004E+01    0.0000000000000000E+00    0.0000000000000000E+00
       B    -1.4806221600000001E+01    2.5633761499999999E+01    0.0000000000000000E+00
       C    -1.4630760300000001E+00    2.0807951999999999E-01    1.4089008740000002E+01
       PERIODIC  XYZ
       MULTIPLE_UNIT_CELL  1 1 1
     &END CELL
     &COORD
F    8.6512267032338954E+00    7.9527221385658455E+00    1.9661345710273417E+00
F    8.2053944682402111E+00    7.9635204495548351E+00    5.2133172295196308E+00
C   -1.6067993259280138E+00    8.1807507783306281E+00    5.4101007192448582E+00
C    4.3525942870573191E+00    7.2351965667522000E+00    5.8649236917613115E+00
C   -2.9016579182216518E+00    7.4519558323964636E+00    5.3583876360203941E+00
C    5.7160644896639861E+00    5.0622790747791040E+00    5.6204986963884505E+00
C   -5.0483961889839823E-01    1.1614764331215737E+01    5.3114991991396270E+00
C   -4.2918051027581966E-01    1.0120291633908101E+01    5.2709046562498880E+00
C    6.8069138511566889E+00    3.0634806861969746E+00    5.3517173987081650E+00
C   -1.7286202081965205E+00    1.2378008467744287E+01    5.2585725222904429E+00
C    3.1716103742442909E+00    5.1811015734320156E+00    5.3039076285951312E+00
C    1.9298272845766624E+00    7.3599093503757125E+00    5.2911494040493601E+00
C    5.5713805503877687E+00    8.4762908456672847E-01    5.2896432731948373E+00
C    1.0463638506360823E+01    5.1163891288366354E+00    5.3530565051403896E+00
C    2.3578827382230778E+00    5.8206256696571765E+00    1.8581871915818242E+00
C    4.7671119876644710E+00    7.1000866535321308E+00    2.0152911532407516E+00
C   -2.5136198824278981E+00    7.1636768406196971E+00    1.7532632254256864E+00
C   -1.2429597859394281E+00    7.9428481624121483E+00    1.7963145814285699E+00
C   -1.6005062340608420E-01    1.1461851296032696E+01    1.7545766982508570E+00
C    1.0906482211674909E+01    5.0593030779163595E+00    1.9052072095271027E+00
C    6.0449709967729612E+00    7.4950370415803091E-01    1.5436690321203210E+00
C   -4.1568197213626537E+00    8.0040063347157684E+00    5.4613192638191972E+00
C    7.9181860325141846E+00    4.9893148038565993E+00    5.3276906844372132E+00
C    3.5581463800237758E+00    5.0858084327547726E+00    2.0366268199629789E+00
C   -1.3671778144515045E-01    9.9682806600287304E+00    1.7306946319160261E+00
C    2.2955675764840917E+00    7.2311512837522169E+00    1.8939713609450772E+00
C    9.7593746146007483E+00    7.1718222067225819E+00    1.9446036416506971E+00
C    7.1880592257568026E+00    3.0210387089981299E+00    1.6432732355696058E+00
C    4.8054513599440192E+00    5.7095539611195658E+00    2.1252044627497475E+00
C    6.0866927779126030E+00    4.9420464671894262E+00    2.0463550312031011E+00
C    1.0081532065192316E+00    8.0148272324813963E+00    1.8335596651127379E+00
C    9.6760780696667545E+00    5.7481370305652524E+00    1.8964599939242246E+00
C    8.3390796000511553E+00    4.9494068477553101E+00    1.8377740212601952E+00
C    7.1872329761782785E+00    1.5511919815634692E+00    1.6668318245239158E+00
C    4.3960170750214571E+00    5.8132863063944669E+00    5.6345260277349336E+00
C   -3.7434488668805410E+00    7.7815031252638960E+00    2.0133505791567625E+00
C    6.7796263290762599E+00    1.5816462574643937E+00    5.4161545933659632E+00
C    1.0121945762125935E+00    1.2238369467787663E+01    1.6744103847755032E+00
C   -2.5923874378475036E+00    5.7514557911895210E+00    1.5789021412884643E+00
C    9.3441024986107148E+00    7.2014717837670110E+00    5.2681530470565976E+00
C    3.5752611364457492E+00    7.8242317140991604E+00    1.9511809223319310E+00
C    3.1571204420269914E+00    7.9044170139578958E+00    5.6998609664406956E+00
C   -1.3511232951857832E+00    1.2212593473209031E+01    1.8511479619516056E+00
C    9.2569827544048149E+00    5.7603131226672719E+00    5.2682192173579896E+00
C    6.5663740261561077E-01    8.1486410163468630E+00    5.2914303080378362E+00
C    2.0124018605882390E+00    5.9610565786510490E+00    5.1730522414855074E+00
C    7.9582385227056296E+00    7.8457279184227746E-01    5.4662455054206021E+00
C    8.3848463443377632E+00    8.0073624092206752E-01    1.8299437861752028E+00
C   -2.9792968605387031E+00    6.0317548120999600E+00    5.0785763782560513E+00
C    6.6851419790421307E-01    1.2388295113182465E+01    5.3484726132432989E+00
N    7.2322090969592712E-01    9.4629501326144574E+00    5.1432318479764003E+00
N    7.9335034279172643E+00    3.6928612665212337E+00    5.0215459691429594E+00
N    8.3380538392438908E+00    3.6551530427776191E+00    1.4401655612144004E+00
N    7.2342648626480672E+00    5.6561071130919913E+00    2.1980547414131721E+00
N   -1.6361129255008309E+00    9.5148432908542340E+00    5.3507847271630711E+00
N   -4.7882504297506151E-01    7.4569356621547476E+00    5.4601566975284710E+00
N   -1.3333568042971879E+00    9.2976304923634352E+00    1.6888930784524456E+00
N   -8.9508754171810909E-02    7.2493302311312657E+00    1.8943346938419301E+00
N    6.0127423650926417E+00    3.6351748258820682E+00    1.8853717395318259E+00
N    6.8476147797621465E+00    5.7314099481656493E+00    5.6232966639457089E+00
N    5.6518074227382522E+00    3.6959114166909806E+00    5.6643601296572168E+00
N    1.0583298874618692E+00    9.3466867711116173E+00    1.7268745477326302E+00
F    3.2022818545753409E+00    9.2245244843524219E+00    6.1092914649854935E+00
F    9.5579718541047765E+00    1.4214371611169958E+00    1.9007367368351560E+00
F    3.4135101378367327E+00    3.7421618938109975E+00    2.1478476237918338E+00
F    5.9241338720508674E+00    7.8299743280584115E+00    1.8524260416672154E+00
F    5.4448186543719208E+00    7.8516280799907170E+00    6.2884085171775803E+00
F    3.1190096372668030E+00    3.8674686914991883E+00    5.0445281425537765E+00
F   -1.8616296370782477E+00    5.3694098387508706E+00    4.7824414107644433E+00
F    1.0973288655564245E+01    3.7122947016097951E+00    1.8449457220328629E+00
F    4.4170416702976825E+00    1.4205285165038277E+00    5.2232444527522093E+00
F    1.0536685513011614E+01    3.7742076166199583E+00    5.3667508471618124E+00
F   -2.9373797266417268E+00    1.1834842204487913E+01    5.4211914248150093E+00
F    4.8476942994858376E+00    1.2836269759705481E+00    1.3102052483724009E+00
F   -1.5613561590509661E+00    5.0351412833468672E+00    1.4058104018476256E+00
F   -3.8866526687191207E+00    9.0652964142779915E+00    2.3312391203886058E+00
F    2.2198348048826086E+00    1.1690533353102584E+01    1.6037179854163124E+00
F    9.4918608967138929E-01    5.2208451379627601E+00    4.8779991936628067E+00
F   -4.2130504157886008E+00    9.3432410651747606E+00    5.6665843140509997E+00
F   -2.5329598216609179E+00    1.1608011990834939E+01    1.9888973911828891E+00
F    3.7098096578759518E+00    9.1605299855436186E+00    1.8813213775757007E+00
F    9.1553969821333183E+00    1.3402558148541812E+00    5.5565152022327835E+00
F    1.2436704519698669E+00    5.0107042652672353E+00    1.7203149106698750E+00
F    1.8695179687807713E+00    1.1764895525744931E+01    5.5062860059314396E+00
F    2.3559446837460552E+01    7.8873952217178624E+00    2.3198643213417496E+00
F    2.3185567716963739E+01    8.0402176538433512E+00    5.7849993952786187E+00
C    1.3176950614507245E+01    7.9203272150960613E+00    5.2814539436593471E+00
C    1.9214605324594160E+01    7.2589350355905573E+00    5.0805745772513289E+00
C    1.1835250556648138E+01    7.2529755856960403E+00    5.2891983090275740E+00
C    2.0651513857724002E+01    5.1417016375623659E+00    5.1478205330064304E+00
C    1.4274445872166632E+01    1.1407454344291905E+01    5.2870192212982241E+00
C    1.4297245817014810E+01    9.9382683741900237E+00    5.3193291083452987E+00
C    2.1770608221658669E+01    3.1399266369376257E+00    5.2591540515961901E+00
C    1.3035888666928912E+01    1.2144540662844303E+01    5.1896691796697958E+00
C    1.8071533208263876E+01    5.1946900568277137E+00    5.1326655646599271E+00
C    1.6734979845887146E+01    7.3128028545004033E+00    5.1288108655686608E+00
C    2.0540103956869977E+01    9.0238346926119439E-01    5.3250812289388856E+00
C    2.5420955008551562E+01    5.2949340812082042E+00    4.9903708776395694E+00
C    1.7145410912499617E+01    5.7026647306156377E+00    1.8159574104563643E+00
C    1.9526974080723946E+01    7.0219168660328792E+00    1.4262718149735281E+00
C    1.2219505136453375E+01    7.1857316308035077E+00    1.8542131410926541E+00
C    1.3541799824466230E+01    7.9374454659243927E+00    1.8541371735502199E+00
C    1.4706029733767515E+01    1.1325174436386897E+01    1.8535823979181818E+00
C    2.5748088595767150E+01    5.0871247967104889E+00    1.6066456918964427E+00
C    2.0879693592825834E+01    6.6963188071723778E-01    1.4874542100607706E+00
C    1.0591723670207621E+01    7.8746549453405095E+00    5.2978744289568720E+00
C    2.2905933090486574E+01    5.1232850377691541E+00    5.1227540144197752E+00
C    1.8406327614115476E+01    5.0487760872722642E+00    1.9326288141299079E+00
C    1.4714986270203925E+01    9.8553762257565527E+00    1.8438699860390775E+00
C    1.7050178354052846E+01    7.0849094875865344E+00    1.5643202723279188E+00
C    2.4620394695165654E+01    7.0815894565831305E+00    2.0604410762026397E+00
C    2.2075176271157694E+01    2.9161242710491928E+00    1.7655846591416406E+00
C    1.9651167257554775E+01    5.6794214824796523E+00    1.7168380100068605E+00
C    2.0934106073105429E+01    4.9233829078880866E+00    1.7234773932847176E+00
C    1.5827241532466433E+01    7.8777353042407832E+00    1.5853950085174386E+00
C    2.4531775214777632E+01    5.7097430929107187E+00    1.8763241097429229E+00
C    2.3249427115958959E+01    4.8942249390518482E+00    1.7821191458918497E+00
C    2.2062314343404914E+01    1.4531673201817310E+00    1.7528525276850619E+00
C    1.9314937220412666E+01    5.8284827133510309E+00    5.1080254042108502E+00
C    1.0979660958899082E+01    7.8230087941650028E+00    1.8562160261223368E+00
C    2.1751285073894259E+01    1.6138205411633346E+00    5.2458819922107063E+00
C    1.5899374194315362E+01    1.2096586628140503E+01    1.8694699107307118E+00
C    1.2122978645329948E+01    5.7671600205811631E+00    1.9053875904372164E+00
C    2.4239815346429086E+01    7.3130397409944194E+00    5.4181030418120395E+00
C    1.8305684469723722E+01    7.7328116992573106E+00    1.3479245773542832E+00
C    1.7977438437672351E+01    7.9308474965634588E+00    5.1702056645973604E+00
C    1.3519574717914301E+01    1.2119899924723335E+01    1.8094337240349703E+00
C    2.4180592542589959E+01    5.9161348646063576E+00    5.1880479637746841E+00
C    1.5453783961082888E+01    7.9738213859249587E+00    5.1265379288626507E+00
C    1.6849218201243705E+01    5.8735705579863540E+00    5.1493165741517171E+00
C    2.2911514411049616E+01    8.4184120439736909E-01    5.2915284191520371E+00
C    2.3196625117712742E+01    6.4955794010008405E-01    1.9308289343784892E+00
C    1.1680612749596451E+01    5.8262272261437102E+00    5.3675017967521130E+00
C    1.5408499791755457E+01    1.2158562069170728E+01    5.4250542092796978E+00
N    1.5490276176566509E+01    9.3354084891924742E+00    5.1262860525731337E+00
N    2.2989101609285154E+01    3.7493536285149522E+00    5.2905528148883301E+00
N    2.3292996859067667E+01    3.5463875996579484E+00    1.8082334860443323E+00
N    2.2088069393554754E+01    5.6148038168695242E+00    1.6233220375536597E+00
N    1.3117450924388089E+01    9.2683799645164413E+00    5.4359053084550766E+00
N    1.4334137862473293E+01    7.2094162737980980E+00    5.1181508958841189E+00
N    1.3529272572442302E+01    9.2440414250440899E+00    2.0236899270759401E+00
N    1.4672187099658155E+01    7.1903411057977840E+00    1.7206800997734397E+00
N    2.0870041687222351E+01    3.5739353893616301E+00    1.8055924409029687E+00
N    2.1782338134113960E+01    5.8446549057868413E+00    4.9687340602736434E+00
N    2.0624314189638426E+01    3.7975417157557390E+00    5.2451062714653736E+00
N    1.5886200284175152E+01    9.2300619791857770E+00    1.5480855482370124E+00
F    1.8092587399299688E+01    9.2572986314027634E+00    5.3218710528330471E+00
F    2.4340054267770231E+01    1.1742960086626022E+00    2.3014612332858317E+00
F    1.8262236358813418E+01    3.7385226782699692E+00    2.2251087094926496E+00
F    2.0615692029667347E+01    7.7271603829529854E+00    1.0975771329389152E+00
F    2.0364236722460699E+01    7.9858211687859670E+00    5.0108948357733576E+00
F    1.7987869899894910E+01    3.8452594014432608E+00    5.0562890324688068E+00
F    1.2785438172697548E+01    5.0509011164609738E+00    5.3144491316273861E+00
F    2.5807609013923727E+01    3.7896830804855979E+00    1.2584875393884751E+00
F    1.9350456768987701E+01    1.5192320571414906E+00    5.2831001119703052E+00
F    2.5556803311708109E+01    4.0123976801018006E+00    4.6268334218897467E+00
F    1.1879045965866714E+01    1.1556521006774142E+01    4.9954874547457573E+00
F    1.9726151481064157E+01    1.2002660265271219E+00    1.1146907235012666E+00
F    1.3260445462454806E+01    5.0540981743131690E+00    1.9752856909048031E+00
F    1.0919033440752502E+01    9.1653700855644384E+00    1.8129408315954014E+00
F    1.7137418430390074E+01    1.1489342588525611E+01    1.9943085410146490E+00
F    1.5783503448057136E+01    5.0840131563817437E+00    5.1098514411250102E+00
F    1.0434274383614706E+01    9.2232017301661031E+00    5.2742484516807000E+00
F    1.2335646004716624E+01    1.1544471368298096E+01    1.7011811576186437E+00
F    1.8336423486398953E+01    9.0155255211947569E+00    1.0032129804203931E+00
F    2.4100877900806495E+01    1.3721971383315490E+00    5.3220482158960323E+00
F    1.6044772822839516E+01    4.9663572023666980E+00    2.0076472585124066E+00
F    1.6657324558763278E+01    1.1635386525056470E+01    5.4792380394830520E+00
F    1.2331359694385966E+00    2.0616541027079464E+01    1.4822923331968465E+00
F    7.3844642798894389E-01    2.0926959758027809E+01    5.4499305351004477E+00
C   -9.1991544120740745E+00    2.0797744007277696E+01    5.3634231727880000E+00
C   -3.1996142620620875E+00    2.0058010415384782E+01    5.3606606908109935E+00
C   -1.0496466037169675E+01    2.0020551395347578E+01    5.4278206844013734E+00
C   -1.7927779114340487E+00    1.7988414178918866E+01    5.3739458706728502E+00
C   -8.0101529219472436E+00    2.4280973989792667E+01    5.3455657226263789E+00
C   -8.0411116852874116E+00    2.2770600202893363E+01    5.3292012556487949E+00
C   -6.3336299859482081E-01    1.6048795928700816E+01    5.1930737656154378E+00
C   -9.1771374281431761E+00    2.5062540933114608E+01    5.1903553630068195E+00
C   -4.3582728763095435E+00    1.7978533758217669E+01    5.3955665371153234E+00
C   -5.6674910747125802E+00    2.0077371540749429E+01    5.3018551562920218E+00
C   -1.7405652153723248E+00    1.3786255237438914E+01    5.1663703692468248E+00
C    2.9984783452099384E+00    1.8051775639718777E+01    5.1439839758796202E+00
C   -5.0731599806515710E+00    1.8615625875959370E+01    2.0247853337964123E+00
C   -2.6590831231756664E+00    1.9951493779561893E+01    1.7199854862852524E+00
C   -1.0016289121552076E+01    1.9965757253246920E+01    1.8146081628701476E+00
C   -8.7045230570284318E+00    2.0768252915591617E+01    1.8163257285915442E+00
C   -7.5670905274800537E+00    2.4263861393461202E+01    1.8517967637944497E+00
C    3.4985251301525224E+00    1.7865282070604863E+01    2.0243769315103282E+00
C   -1.3555635739409120E+00    1.3574686624997470E+01    1.7945216387931100E+00
C   -1.1735312252056154E+01    2.0650270030504917E+01    5.2610360980652660E+00
C    4.5448627179250939E-01    1.7964914277806123E+01    5.3022599949050990E+00
C   -3.8644681166367487E+00    1.7914380492382211E+01    2.1257096743160302E+00
C   -7.5341398005046738E+00    2.2758868983115430E+01    1.9064918960131609E+00
C   -5.1196775166879123E+00    2.0068309016289678E+01    1.7990803649837384E+00
C    2.3773747627607067E+00    1.9909505770096459E+01    1.6287171816279318E+00
C   -1.9905615824843922E-01    1.5825569749683597E+01    1.5912238166531960E+00
C   -2.6366047341270544E+00    1.8542518114334730E+01    1.9397114905380415E+00
C   -1.3546201109015703E+00    1.7767602824814084E+01    1.8767485887935298E+00
C   -6.4020321679691401E+00    2.0775912864683090E+01    1.8243679069216676E+00
C    2.2743377370173929E+00    1.8510356867482688E+01    1.8167578755455323E+00
C    9.3239871222905002E-01    1.7796024007359044E+01    1.8249204143253657E+00
C   -1.9916775150338747E-01    1.4350434899763936E+01    1.5569031767492933E+00
C   -3.0839861023612007E+00    1.8654973361596120E+01    5.3975930852612670E+00
C   -1.1281976283542004E+01    2.0600502012058548E+01    1.9172365958599324E+00
C   -5.8065895137064594E-01    1.4561622610808707E+01    5.2094679450785151E+00
C   -6.3442512334349930E+00    2.5052284301028223E+01    1.9262589639037881E+00
C   -1.0102934903289475E+01    1.8596510865737141E+01    1.6051822592013663E+00
C    1.8383342490435235E+00    2.0161468517655219E+01    5.3275588953572770E+00
C   -3.8634077782436003E+00    2.0685234362071206E+01    1.6393027842594785E+00
C   -4.4535750995110135E+00    2.0697087197838005E+01    5.2438289179191466E+00
C   -8.7286268479769245E+00    2.4987141741058743E+01    1.6896537050416642E+00
C    1.7316369836914849E+00    1.8721090263685603E+01    5.2753417836060867E+00
C   -6.9113664135403026E+00    2.0801820289109745E+01    5.2441228142377962E+00
C   -5.5962213584514950E+00    1.8655368771795487E+01    5.3223743077371477E+00
C    6.1869837740363853E-01    1.3797068336582900E+01    5.2528838627603314E+00
C    9.8933633349253991E-01    1.3606146766407235E+01    1.5087301241655513E+00
C   -1.0526749502496264E+01    1.8620705022146172E+01    5.4547880856480848E+00
C   -6.8283746972501129E+00    2.5016023667623450E+01    5.4098493011065427E+00
N   -6.8617663797631359E+00    2.2153531510314568E+01    5.3269899603578166E+00
N    5.4505049636322345E-01    1.6639760302293723E+01    5.0704574756691603E+00
N    9.6565592443381065E-01    1.6465569547699015E+01    1.7372919311407373E+00
N   -2.0002770190458369E-01    1.8483904192611337E+01    2.0139637878291019E+00
N   -9.2265209976684339E+00    2.2130438712799869E+01    5.3415729895081938E+00
N   -8.0457206828560039E+00    2.0103994012185773E+01    5.2360673927553778E+00
N   -8.7343537448812700E+00    2.2117545780589062E+01    1.8777698650609234E+00
N   -7.5741508122607675E+00    2.0021309920059519E+01    1.6824464321705142E+00
N   -1.4060056065738493E+00    1.6440281413341037E+01    1.6288746541028443E+00
N   -6.6349367108677759E-01    1.8671764381614683E+01    5.5299350883065372E+00
N   -1.8137624274086575E+00    1.6639515027702458E+01    5.2499003798214723E+00
N   -6.3531259881132263E+00    2.2137437127843455E+01    1.9305325398929869E+00
F   -4.3519336183846020E+00    2.2064032129238569E+01    5.0351703064024047E+00
F    2.1521366129208626E+00    1.4207507170105444E+01    1.2501114503266613E+00
F   -3.9508764714381672E+00    1.6647524603495608E+01    2.5136017158238029E+00
F   -1.5466296876633570E+00    2.0648445909486483E+01    1.5604305448404052E+00
F   -2.1247244787430541E+00    2.0860661449313969E+01    5.3587596761944081E+00
F   -4.4295748695370465E+00    1.6632769804621834E+01    5.6102740133546565E+00
F   -9.4041862622966974E+00    1.7935710119344385E+01    5.6629244813592585E+00
F    3.5984860139556951E+00    1.6538511448330915E+01    2.1647062729664261E+00
F   -2.9640320780084122E+00    1.4381112754915245E+01    5.1492062036404329E+00
F    3.1064664661890471E+00    1.6759558768827702E+01    5.0750403316974699E+00
F   -1.0398586644691212E+01    2.4493673421016169E+01    4.9868579543633436E+00
F   -2.5340207168665749E+00    1.4155913205011718E+01    2.0432756334195923E+00
F   -8.9741972194841324E+00    1.7840024262342713E+01    1.4222300253024589E+00
F   -1.1403103065634184E+01    2.1901265029898617E+01    2.1831396364206079E+00
F   -5.0973388802476309E+00    2.4517026735434847E+01    2.0200184194936961E+00
F   -6.6831234517561340E+00    1.7929568066930884E+01    5.3848481548423646E+00
F   -1.1836398588673356E+01    2.2000868092473400E+01    5.2168201300148391E+00
F   -9.9187697906745349E+00    2.4395544268564215E+01    1.6674338303021292E+00
F   -3.7605415685314751E+00    2.1994478944626408E+01    1.4452157075505219E+00
F    1.8530398457401136E+00    1.4371879878041289E+01    5.1962854537143146E+00
F   -6.1829729226351455E+00    1.7964244384899370E+01    2.3079259232310090E+00
F   -5.6157250887361982E+00    2.4505546543582199E+01    5.5340529323538217E+00
F    1.5977305558995374E+01    2.0553924069507634E+01    1.9529642108367278E+00
F    1.5577812313967984E+01    2.0694812712698067E+01    4.9869554981177107E+00
C    5.6270677118698087E+00    2.0912190895164425E+01    5.2998158061391329E+00
C    1.1677103585808476E+01    1.9994572815849022E+01    5.1553337238517623E+00
C    4.3173483783365327E+00    2.0196919700472169E+01    5.2813957970927188E+00
C    1.3021989424250213E+01    1.7817519844459483E+01    5.1733790740781354E+00
C    6.8468782975621032E+00    2.4349495321043268E+01    5.3737355207996753E+00
C    6.7793036870116303E+00    2.2817856432118187E+01    5.3845246478757254E+00
C    1.4194656849060623E+01    1.5820027574122280E+01    5.2412496733379221E+00
C    5.6818048910217565E+00    2.5136171201462794E+01    5.3970525403304590E+00
C    1.0476556424849877E+01    1.7989537049085126E+01    5.2126926527089736E+00
C    9.1990571289744185E+00    2.0125324779619493E+01    5.2709007344993593E+00
C    1.3051212141950289E+01    1.3542108951951171E+01    5.2105832829832908E+00
C    1.7872133763725234E+01    1.7918591524259952E+01    5.3245319965404310E+00
C    9.8011442141805460E+00    1.8498680770836874E+01    1.6940533209025137E+00
C    1.2179669421129354E+01    1.9865920631701051E+01    1.8803809317226625E+00
C    4.8139515386139111E+00    1.9951842833479201E+01    1.8408691532484986E+00
C    6.0813661198706797E+00    2.0698794640519409E+01    1.9187164352871189E+00
C    7.2197853714358953E+00    2.4099266099470842E+01    1.7864359968715970E+00
C    1.8321241908335821E+01    1.7876664759252098E+01    1.4536885468505494E+00
C    1.3527467271132199E+01    1.3507304022812118E+01    1.7613481117791427E+00
C    3.0612515998956522E+00    2.0867690643398234E+01    5.2564980031079118E+00
C    1.5262972615785280E+01    1.7793152195392022E+01    5.0920558162916132E+00
C    1.1010845958466721E+01    1.7782551411756518E+01    1.7095741788772310E+00
C    7.2194668472959806E+00    2.2652823899374528E+01    1.8343363066887155E+00
C    9.7153245351990325E+00    1.9904987327241681E+01    1.8297294006518348E+00
C    1.7125790809412415E+01    1.9878129956889733E+01    1.8032351137551483E+00
C    1.4709218305333090E+01    1.5743073938179361E+01    1.8166401074229364E+00
C    1.2260157699020336E+01    1.8457071799084886E+01    1.7984000045003969E+00
C    1.3551874137474387E+01    1.7682108398512497E+01    1.7682175376413771E+00
C    8.3867403718896920E+00    2.0658871038504074E+01    1.8502893323471008E+00
C    1.7075605087251752E+01    1.8514966372834635E+01    1.5370644158012765E+00
C    1.5805548442968202E+01    1.7741449398176872E+01    1.6141851966706238E+00
C    1.4726082012444076E+01    1.4239862402647477E+01    1.7801786993241453E+00
C    1.1767195737181003E+01    1.8594743874331314E+01    5.1761954854528724E+00
C    3.5930343648821568E+00    2.0581327993596606E+01    1.5287682607895285E+00
C    1.4201951577954480E+01    1.4346582639657040E+01    5.2739186678821133E+00
C    8.3986057155313354E+00    2.4893294029967819E+01    1.9842782883461849E+00
C    4.7390526569797791E+00    1.8543634355622736E+01    2.0505061227128456E+00
C    1.6670283690465507E+01    1.9927432855943852E+01    5.1396015849605492E+00
C    1.0973722303330646E+01    2.0542683828854784E+01    1.8687771520496566E+00
C    1.0481985593917267E+01    2.0725557997865408E+01    5.1993397295294308E+00
C    6.0776092377708890E+00    2.4880362764170268E+01    1.5699932635944263E+00
C    1.6605582457450662E+01    1.8528928554385370E+01    5.1660663325021146E+00
C    7.8683574400198806E+00    2.0837580745196785E+01    5.3031844552550940E+00
C    9.2576523634711414E+00    1.8702792444994724E+01    5.2784521506443562E+00
C    1.5382743946884059E+01    1.3571368364211608E+01    5.3729231169731770E+00
C    1.5915862501934393E+01    1.3495880331091195E+01    1.8975230608553020E+00
C    4.2003622203160811E+00    1.8774026643185184E+01    5.2392310357782224E+00
C    8.0474425693821701E+00    2.5077179734883959E+01    5.3123104092723858E+00
N    7.9637302713568374E+00    2.2187766326672502E+01    5.4339117157731653E+00
N    1.5324223864227937E+01    1.6469597120319417E+01    5.0730176718482420E+00
N    1.5893531358784230E+01    1.6365160131217422E+01    1.7838942057986988E+00
N    1.4625175615260302E+01    1.8433440251144820E+01    1.5236793159821651E+00
N    5.6021076512722354E+00    2.2234756439633120E+01    5.4307539699716019E+00
N    6.7233206961340066E+00    2.0181609499164502E+01    5.1907596553977049E+00
N    6.0204358728159404E+00    2.2041413880709321E+01    1.9312904627961771E+00
N    7.2493293333307163E+00    1.9963031194114038E+01    1.9311092405258194E+00
N    1.3551998996964562E+01    1.6372907723990416E+01    1.9344919471129483E+00
N    1.4153732196171330E+01    1.8528466669511026E+01    5.0806067683425358E+00
N    1.2976075399434693E+01    1.6446406878981563E+01    5.2839097262935475E+00
N    8.4046482904246229E+00    2.1971328892664474E+01    1.7071822718950536E+00
F    1.0574032252959901E+01    2.2059506251585894E+01    4.8819635082490560E+00
F    1.7065115231877197E+01    1.4056753264963966E+01    2.1484184370465393E+00
F    1.0872236432337891E+01    1.6416373660158257E+01    1.6734939806837925E+00
F    1.3265669560949798E+01    2.0623751833125201E+01    2.0523193418927579E+00
F    1.2736334788038409E+01    2.0787526315243415E+01    5.0237426969335877E+00
F    1.0345127529250595E+01    1.6644968742245872E+01    5.2830000669524271E+00
F    5.3285296675365634E+00    1.7961888859420419E+01    5.2907759932075642E+00
F    1.8416243977990970E+01    1.6606492236379946E+01    1.0533015386712146E+00
F    1.1796702131232035E+01    1.4059992828066910E+01    5.1968403855568948E+00